molecule {
O
H 1 R
H 1 R 2 A

R = .9
A = 104.5
}

plugin_load("./fon_hf.so")

set {
  basis sto-3g
}

set fon_hf {
  print 1
}

energy('scf')

plugin("./fon_hf.so")
